#### SYSTEM 
SystemLabel  H2
SystemName   H2 Molecule

###### ATOMS
NumberOfSpecies 1
NumberOfAtoms   2

%block ChemicalSpeciesLabel
  1   1  H
%endblock ChemicalSpeciesLabel


###### Basis Sets
 PAO.BasisSize     SZP
 PAO.EnergyShift   0.01 Ry

### Structure
LatticeConstant         10 Ang
AtomicCoordinatesFormat Ang

%block LatticeVectors
1.00           0.00    0.00
0.00           1.00    0.00
0.00           0.00    1.00  
%endblock LatticeVectors

%block AtomicCoordinatesAndAtomicSpecies
   5.00  5.00   6.00 1
   5.00  5.00   4.00 1
%endblock AtomicCoordinatesAndAtomicSpecies

% block SuperCell
  1.0 0.0 0.0
  0.0 1.0 0.0
  0.0 0.0 1.0
% endblock SuperCell


###### K-Point Sampling
% block Kgrid.MonkhorstPack
  1.0 0.0 0.0 0
  0.0 1.0 0.0 0
  0.0 0.0 1.0 0
% endblock Kgrid.MonkhorstPack

###### Exchange-Correlation Functional
XC.Functional LDA
XC.Authors    PW92

###### Spin Polarization
Spin non-polarized


###### Self-consistent-field
MaxSCFIterations  300

###### Real-Space and Planewaves
Mesh.Cutoff 300 Ry

#### OUTPUT FILES
DM.UseSaveDM true
Write.DM     true
