#### SYSTEM 
#SystemLabel  H2
#SystemName   H2 Molecule

###### ATOMS
#NumberOfSpecies 1
#NumberOfAtoms 2

%block ChemicalSpeciesLabel
  1   1  H
%endblock ChemicalSpeciesLabel

###### Basis Sets
#PAO.BasisSize DZP
#PAO.EnergyShift 0.01 Ry

### Structure
#LatticeConstant 10 Ang
#AtomicCoordinatesFormat Ang

#%block LatticeVectors
#1.00           0.00    0.00
#0.00           1.00    0.00
#0.00           0.00    1.00  
#%endblock LatticeVectors

%block AtomicCoordinatesAndAtomicSpecies
   5.00  5.00   5.25 1
   5.00  5.00   4.75 1
#%endblock AtomicCoordinatesAndAtomicSpecies

###### Exchange-Correlation Functional
#XC.Functional LDA
#XC.Authors PW92

###### Spin Polarization
#Spin non-polarized

###### Self-consistent-field
#MaxSCFIterations  300

###### Real-Space and Mesh 
#%include cutoff.fdf
